67117057
557602
33571076
2056
65584
178
67108928
160
19006212
19006210
5120
18440
67113984
8193
18436
1081346
8454160
19006208
8650752
524290
1081344
19006208
146800640
12910592
19006208
33554436
67113025
138412032
